units metal

read_data supercell-number

pair_style  polymlp
pair_coeff * * ../mlp.lammps dummy

dump phonopy all custom 1 forces-number.* id type x y z fx fy fz
dump_modify phonopy format line "%d %d %15.8f %15.8f %15.8f %15.8f %15.8f %15.8f"
run 0
